NAME : PR123A.75542.tour
COMMENT : Cost = 0_75542
COMMENT : Found by LKH [Keld Helsgaun] Sun Sep 17 16:52:42 2017
TYPE : TOUR
DIMENSION : 123
TOUR_SECTION
1
27
28
29
35
36
61
59
60
62
66
65
70
71
72
73
74
78
91
92
93
94
95
98
99
123
122
121
119
118
116
83
81
80
82
67
58
57
56
55
37
23
22
25
24
26
38
39
40
41
42
43
45
53
52
17
16
9
10
14
11
12
13
15
51
50
49
48
47
46
18
19
20
21
44
54
89
101
113
112
111
110
109
103
104
105
106
107
108
102
88
87
86
85
84
90
100
114
115
117
120
97
96
79
77
76
75
69
64
68
63
33
34
30
31
32
6
5
4
3
2
7
8
-1
EOF
